30 1 6
496 640 85 319 671 287 588 639 420 183 356 996 819 950 346 836 642 117 680 892 711 367 757 618 886 387 814 96 479 748 
873 326 387 957 644 57 596 583 48 15 765 403 10 583 353 708 771 346 824 802 590 886 168 346 503 406 84 316 853 562 
64 725 239 450 34 234 859 629 816 906 643 932 308 4 867 12 711 637 358 886 438 947 771 957 644 625 362 728 293 566 
641 356 291 232 157 324 465 367 304 633 272 946 564 932 301 782 943 364 418 652 249 207 950 372 516 594 348 877 673 640 
795 313 347 85 896 856 760 361 222 63 345 494 360 260 425 12 42 719 375 811 371 624 370 672 347 885 265 694 113 289 
334 907 954 680 343 849 535 454 561 757 868 905 602 227 517 26 239 558 96 613 720 466 588 89 490 934 973 754 980 86 
3950 3130 9920 3480 3440 3350 1960 8790 7880 7570 9870 6560 6610 9400 2340 5290 3170 8240 860 4120 7890 8060 2300 3760 8940 7190 6620 8670 8240 6410 
89000
